p edge 70 251
v 1 15
v 2 15
v 3 1
v 4 16
v 5 18
v 6 18
v 7 13
v 8 12
v 9 11
v 10 5
v 11 8
v 12 14
v 13 13
v 14 16
v 15 16
v 16 1
v 17 14
v 18 12
v 19 9
v 20 15
v 21 19
v 22 15
v 23 12
v 24 15
v 25 3
v 26 20
v 27 7
v 28 5
v 29 5
v 30 10
v 31 7
v 32 19
v 33 4
v 34 7
v 35 15
v 36 2
v 37 4
v 38 7
v 39 13
v 40 15
v 41 11
v 42 20
v 43 9
v 44 3
v 45 15
v 46 4
v 47 4
v 48 8
v 49 16
v 50 13
v 51 3
v 52 15
v 53 7
v 54 14
v 55 10
v 56 10
v 57 14
v 58 17
v 59 15
v 60 19
v 61 6
v 62 1
v 63 18
v 64 10
v 65 7
v 66 12
v 67 12
v 68 10
v 69 19
v 70 4
e 1 13
e 1 14
e 1 21
e 1 26
e 1 36
e 1 56
e 2 6
e 2 10
e 2 14
e 2 15
e 2 18
e 2 43
e 2 47
e 2 54
e 2 65
e 2 66
e 2 67
e 3 5
e 3 20
e 3 23
e 3 50
e 3 62
e 4 7
e 4 9
e 4 21
e 4 22
e 4 43
e 4 45
e 4 61
e 4 63
e 5 8
e 5 9
e 5 16
e 5 36
e 5 54
e 5 55
e 5 57
e 5 59
e 6 34
e 6 43
e 6 47
e 6 51
e 6 53
e 6 68
e 7 41
e 7 50
e 7 51
e 7 56
e 7 65
e 8 25
e 8 29
e 8 38
e 8 45
e 8 47
e 8 53
e 9 10
e 9 17
e 9 18
e 9 26
e 9 37
e 9 45
e 9 63
e 10 29
e 10 32
e 10 33
e 10 35
e 10 49
e 10 54
e 10 58
e 10 60
e 10 67
e 11 15
e 11 24
e 11 25
e 11 41
e 11 52
e 11 59
e 11 64
e 12 23
e 12 35
e 12 46
e 12 63
e 12 68
e 13 18
e 13 21
e 13 23
e 13 33
e 13 34
e 13 63
e 14 28
e 14 37
e 14 49
e 14 57
e 14 66
e 15 20
e 15 55
e 16 19
e 16 21
e 16 38
e 16 42
e 17 32
e 17 34
e 17 39
e 17 41
e 17 42
e 17 53
e 17 67
e 17 68
e 18 36
e 18 43
e 18 52
e 18 57
e 18 58
e 18 62
e 18 69
e 19 28
e 19 56
e 19 60
e 20 22
e 20 24
e 20 36
e 20 40
e 20 55
e 20 66
e 21 41
e 21 45
e 21 46
e 21 54
e 21 59
e 21 62
e 21 63
e 21 66
e 22 24
e 22 25
e 22 26
e 22 39
e 22 53
e 22 65
e 23 38
e 23 48
e 23 50
e 23 52
e 23 63
e 23 67
e 23 70
e 24 42
e 24 57
e 25 59
e 26 32
e 26 33
e 26 34
e 26 43
e 26 53
e 26 64
e 27 32
e 27 35
e 27 37
e 27 42
e 27 48
e 27 59
e 27 66
e 28 38
e 28 58
e 29 39
e 30 33
e 30 48
e 30 50
e 30 55
e 30 61
e 31 46
e 31 48
e 31 60
e 31 66
e 32 53
e 32 67
e 33 35
e 33 36
e 33 40
e 33 46
e 33 56
e 33 67
e 33 68
e 34 35
e 34 44
e 34 47
e 34 48
e 34 56
e 34 57
e 35 39
e 35 43
e 35 51
e 35 52
e 36 49
e 36 61
e 36 67
e 37 49
e 37 58
e 37 62
e 38 46
e 38 48
e 38 66
e 38 68
e 39 57
e 40 42
e 40 44
e 40 50
e 40 53
e 40 59
e 40 70
e 41 56
e 41 61
e 42 52
e 42 59
e 42 61
e 42 64
e 43 59
e 43 66
e 44 49
e 44 57
e 44 64
e 44 66
e 44 69
e 45 50
e 46 49
e 46 50
e 47 54
e 47 63
e 48 50
e 48 52
e 48 68
e 49 56
e 50 62
e 50 67
e 51 54
e 51 55
e 51 61
e 51 65
e 52 64
e 53 63
e 53 64
e 54 55
e 57 58
e 58 59
e 58 69
e 59 69
e 61 65
e 61 68
e 62 69
e 63 68
e 65 68
e 66 69
